;; sequence(s): A20044
;; terms: 1 0 0 1 3 15 80 506 3710 30920 288591 2982109 33797241 416832633 5557768440 79661347641 1221473997164 19950741953682 345812860530488 6339902443058941
;; small program: ((loop2(x * y, 1 + (2 + y), x, 2, 1) div loop((x + x) + x, x, 1)) + 1) div 2
;; fast program: ((loop2(x * y, 1 + (2 + y), x, 2, 1) div loop2(x * y, y, x div 2, loop(1 + 2, x mod 2, 1), 1 + (2 * (2 + 2)))) + 1) div 2
(set-logic UFNIA)
(define-fun divf ((a Int) (b Int)) Int (ite (< 0 b) (div a b) (div (- a) (- b))))
(define-fun modf ((a Int) (b Int)) Int (ite (< 0 b) (mod a b) (- (mod (- a) (- b)))))
(declare-fun f0 (Int Int) Int)
(declare-fun g0 (Int Int) Int)
(declare-fun h0 (Int) Int)
(declare-fun i0 () Int)
(declare-fun j0 () Int)
(declare-fun u0 (Int Int Int) Int)
(declare-fun v0 (Int Int Int) Int)
(declare-fun w0 (Int) Int)
(declare-fun f1 (Int) Int)
(declare-fun g1 (Int) Int)
(declare-fun h1 () Int)
(declare-fun u1 (Int Int) Int)
(declare-fun v1 (Int) Int)
(declare-fun small (Int) Int)
(declare-fun f2 (Int Int) Int)
(declare-fun g2 (Int Int) Int)
(declare-fun h2 (Int) Int)
(declare-fun i2 () Int)
(declare-fun j2 () Int)
(declare-fun u2 (Int Int Int) Int)
(declare-fun v2 (Int Int Int) Int)
(declare-fun w2 (Int) Int)
(declare-fun f3 (Int Int) Int)
(declare-fun g3 (Int Int) Int)
(declare-fun h3 (Int) Int)
(declare-fun f4 () Int)
(declare-fun g4 (Int) Int)
(declare-fun h4 () Int)
(declare-fun u4 (Int Int) Int)
(declare-fun v4 (Int) Int)
(declare-fun i3 (Int) Int)
(declare-fun j3 () Int)
(declare-fun u3 (Int Int Int) Int)
(declare-fun v3 (Int Int Int) Int)
(declare-fun w3 (Int) Int)
(declare-fun fast (Int) Int)
(assert (forall ((x Int) (y Int)) (= (f0 x y) (* x y))))
(assert (forall ((x Int) (y Int)) (= (g0 x y) (+ 1 (+ 2 y)))))
(assert (forall ((x Int)) (= (h0 x) x)))
(assert (= i0 2))
(assert (= j0 1))
(assert (forall ((x Int) (y Int) (z Int)) (= (u0 x y z) (ite (<= x 0) y (f0 (u0 (- x 1) y z) (v0 (- x 1) y z))))))
(assert (forall ((x Int) (y Int) (z Int)) (= (v0 x y z) (ite (<= x 0) z (g0 (u0 (- x 1) y z) (v0 (- x 1) y z))))))
(assert (forall ((x Int)) (= (w0 x) (u0 (h0 x) i0 j0))))
(assert (forall ((x Int)) (= (f1 x) (+ (+ x x) x))))
(assert (forall ((x Int)) (= (g1 x) x)))
(assert (= h1 1))
(assert (forall ((x Int) (y Int)) (= (u1 x y) (ite (<= x 0) y (f1 (u1 (- x 1) y))))))
(assert (forall ((x Int)) (= (v1 x) (u1 (g1 x) h1))))
(assert (forall ((x Int)) (= (small x) (divf (+ (divf (w0 x) (v1 x)) 1) 2))))
(assert (forall ((x Int) (y Int)) (= (f2 x y) (* x y))))
(assert (forall ((x Int) (y Int)) (= (g2 x y) (+ 1 (+ 2 y)))))
(assert (forall ((x Int)) (= (h2 x) x)))
(assert (= i2 2))
(assert (= j2 1))
(assert (forall ((x Int) (y Int) (z Int)) (= (u2 x y z) (ite (<= x 0) y (f2 (u2 (- x 1) y z) (v2 (- x 1) y z))))))
(assert (forall ((x Int) (y Int) (z Int)) (= (v2 x y z) (ite (<= x 0) z (g2 (u2 (- x 1) y z) (v2 (- x 1) y z))))))
(assert (forall ((x Int)) (= (w2 x) (u2 (h2 x) i2 j2))))
(assert (forall ((x Int) (y Int)) (= (f3 x y) (* x y))))
(assert (forall ((x Int) (y Int)) (= (g3 x y) y)))
(assert (forall ((x Int)) (= (h3 x) (divf x 2))))
(assert (= f4 (+ 1 2)))
(assert (forall ((x Int)) (= (g4 x) (modf x 2))))
(assert (= h4 1))
(assert (forall ((x Int) (y Int)) (= (u4 x y) (ite (<= x 0) y f4))))
(assert (forall ((x Int)) (= (v4 x) (u4 (g4 x) h4))))
(assert (forall ((x Int)) (= (i3 x) (v4 x))))
(assert (= j3 (+ 1 (* 2 (+ 2 2)))))
(assert (forall ((x Int) (y Int) (z Int)) (= (u3 x y z) (ite (<= x 0) y (f3 (u3 (- x 1) y z) (v3 (- x 1) y z))))))
(assert (forall ((x Int) (y Int) (z Int)) (= (v3 x y z) (ite (<= x 0) z (g3 (u3 (- x 1) y z) (v3 (- x 1) y z))))))
(assert (forall ((x Int)) (= (w3 x) (u3 (h3 x) (i3 x) j3))))
(assert (forall ((x Int)) (= (fast x) (divf (+ (divf (w2 x) (w3 x)) 1) 2))))
(assert (exists ((c Int)) (and (>= c 0) (not (= (small c) (fast c))))))
(check-sat)
